unknown
(model
; cardinality of BoundSet is 1
(declare-sort BoundSet 0)
; rep: @uc_BoundSet_0
; cardinality of UnboundSet is 1
(declare-sort UnboundSet 0)
(declare-fun groundTerm_2 () UnboundSet)
(define-fun IsPredicted ((BOUND_VARIABLE_376 BoundSet)) Bool true)
(define-fun DidNotHappen ((BOUND_VARIABLE_376 BoundSet)) Bool true)
(define-fun IsDroppingAbruptly ((BOUND_VARIABLE_376 BoundSet)) Bool false)
(define-fun DidNotCauseDeclineInPolarBearNumbers ((BOUND_VARIABLE_376 BoundSet)) Bool false)
)
sat
(model
; cardinality of BoundSet is 1
(declare-sort BoundSet 0)
; rep: @uc_BoundSet_0
; cardinality of UnboundSet is 1
(declare-sort UnboundSet 0)
(declare-fun groundTerm_4 () UnboundSet)
(define-fun IsPredicted ((BOUND_VARIABLE_391 BoundSet)) Bool true)
(define-fun DidNotHappen ((BOUND_VARIABLE_391 BoundSet)) Bool true)
(define-fun IsDroppingAbruptly ((BOUND_VARIABLE_391 BoundSet)) Bool true)
(define-fun DidNotCauseDeclineInPolarBearNumbers ((BOUND_VARIABLE_391 BoundSet)) Bool true)
)
